c WARNING: for repeatability, setting FPU to use double precision
d VARIABLES            226176       
d CONSTRAINTS          986791       
c ============================[ Problem Statistics ]=============================
c |                                                                             |
c |  Number of variables:        226176                                         |
c |  Number of clauses:          986791                                         |
c |  Parse time:                   0.16 s                                       |
c |                                                                             |
c ============================[ Search Statistics ]==============================
c | Conflicts |          ORIGINAL         |          LEARNT          | Progress |
c |           |    Vars  Clauses Literals |    Limit  Clauses Lit/Cl |          |
c ===============================================================================
c |       100 |  187524   887161  2150105 |   325292      100    170 | 17.089 % |
c |       250 |  187524   887161  2150105 |   357821      250     89 | 17.089 % |
c |       475 |  187524   887161  2150105 |   393603      475     91 | 17.089 % |
c |       812 |  187524   887161  2150105 |   432964      812     94 | 17.089 % |
c |      1318 |  187524   887161  2150105 |   476260     1318    125 | 17.089 % |
c |      2077 |  187524   887161  2150105 |   523886     2077    110 | 17.089 % |
c |      3216 |  187524   887161  2150105 |   576275     3216    161 | 17.089 % |
c |      4924 |  187524   887161  2150105 |   633902     4924    143 | 17.089 % |
c |      7486 |  187524   887161  2150105 |   697293     7486    168 | 17.089 % |
c |     11330 |  187524   887161  2150105 |   767022    11330    165 | 17.089 % |
c ===============================================================================
c restarts              : 63
c conflicts             : 16802          (1574 /sec)
c decisions             : 134138         (0.00 % random) (12564 /sec)
c propagations          : 57687707       (5403157 /sec)
c conflict literals     : 2963777        (5.70 % deleted)
d RESTARTS             63
d FAILURES             16802        
d NODES                134138       
d BACKTRACKS           134138       
d PROPAGATIONS         57687707     
d NOGOODSIZE           176.39 
d MEMORY               94.00 
d TIME                 10.6767 

s SATISFIABLE
